hw5/p2/f2.sl
( set-logic ALL )

( define-fun f ( ( x Real ) ) Real
	(* (* x x) x)
)

( synth-fun lower_f ( ( l Real ) ( u Real ) ) Real
	((Start Real) (StartBool Bool))
	(
		(Start Real (l u 0.0 1.0
			(- Start Start ) 
			(+ Start Start ) 
			(* Start Start ) 
			(ite StartBool Start Start))
		)
    		(StartBool Bool (
			(or StartBool StartBool)
			(and StartBool StartBool)
			(not StartBool)
			(<= Start Start)
			(>= Start Start))
		)
	)
)

( synth-fun upper_f ( ( l Real ) ( u Real ) ) Real
	((Start Real) (StartBool Bool))
	(
		(Start Real (l u 0.0 1.0
			(- Start Start ) 
			(+ Start Start ) 
			(* Start Start ) 
			(ite StartBool Start Start))
		)
    		(StartBool Bool (
			(or StartBool StartBool)
			(and StartBool StartBool)
			(not StartBool)
			(<= Start Start)
			(>= Start Start))
		)
	)
)

( declare-var x Real )
( declare-var l Real )
( declare-var u Real )
( declare-var fx Real )
( declare-var lf Real )
( declare-var uf Real )

( constraint 
	( =>
		( and ( <= l x ) ( <= x u ) )
		( and 
			( <= ( lower_f l u ) ( f x ) )
			( <= ( f x ) ( upper_f l u ) )
		)
	)
)

( check-synth )
